303 5
10 10 10 10 10 

0 0 0 0 0 0 3 2 14 26 
0 0 0 0 0 0 6 3 4 5 10 11 12 
6 1 0 0 0 0 3 9 8 7 
10 4 0 0 0 0 3 9 8 7 
4 1 0 0 0 0 2 8 6 
6 1 0 0 0 0 1 7 
4 3 0 0 0 0 1 13 
10 5 0 0 0 0 1 13 
8 3 0 0 0 0 1 13 
3 2 0 0 0 0 1 13 
4 3 0 0 0 0 2 13 127 
10 2 0 0 0 0 1 13 
0 0 0 0 0 0 1 38 
0 0 0 0 0 0 2 15 16 
5 0 0 0 1 0 2 24 18 
9 0 0 0 2 0 1 17 
5 0 0 0 5 0 6 24 23 22 21 20 19 
5 0 0 0 1 0 5 23 22 21 20 19 
4 0 0 0 4 0 2 25 175 
6 0 0 0 2 0 1 25 
1 0 0 0 3 0 1 25 
4 0 0 0 1 0 1 25 
7 0 0 0 1 0 1 25 
7 0 0 0 5 0 1 25 
0 0 0 0 0 0 1 38 
0 0 0 0 0 0 7 27 29 32 33 34 35 36 
1 0 0 1 0 0 1 28 
9 0 0 4 0 0 1 30 
6 0 0 4 0 0 1 31 
5 0 0 1 0 0 1 37 
2 0 0 1 0 0 2 37 293 
1 0 0 4 0 0 1 37 
5 0 0 3 0 0 1 37 
1 0 0 3 0 0 1 37 
10 0 0 1 0 0 1 37 
10 0 0 3 0 0 1 37 
0 0 0 0 0 0 1 38 
0 0 0 0 0 0 3 39 81 123 
0 0 0 0 0 0 4 40 42 43 46 
3 1 1 0 1 1 4 49 48 45 41 
9 3 1 0 2 3 2 50 44 
9 1 3 0 3 3 5 79 56 51 50 47 
2 2 3 0 1 3 5 56 55 53 51 47 
6 3 1 0 4 1 5 79 56 55 51 47 
4 2 3 0 3 1 8 68 63 59 58 56 55 54 53 
7 4 2 0 4 4 3 52 49 48 
1 5 1 0 3 2 8 68 67 62 60 59 58 57 52 
9 2 2 0 2 1 4 68 62 61 50 
4 1 4 0 3 2 7 67 63 62 60 59 58 55 
5 3 2 0 2 2 4 63 60 57 55 
3 4 6 0 1 2 4 67 66 62 61 
3 4 1 0 3 3 3 66 63 61 
9 2 3 0 4 3 3 79 66 57 
2 4 2 0 3 5 3 67 62 60 
9 4 6 0 1 3 4 73 72 69 64 
7 4 4 0 3 2 2 66 61 
4 2 3 0 2 1 3 78 72 64 
8 2 3 0 2 4 3 78 73 64 
9 1 3 0 3 4 3 78 72 64 
5 2 2 0 1 2 3 78 72 65 
4 3 2 0 1 3 2 78 64 
2 1 2 0 4 3 4 78 77 72 70 
7 1 3 0 1 3 3 76 72 69 
1 3 1 0 3 3 1 65 
4 1 1 0 5 5 3 77 71 70 
1 2 1 0 2 4 3 77 73 71 
4 4 1 0 2 1 2 76 69 
7 3 2 0 1 3 1 69 
4 1 3 0 3 2 4 78 77 75 74 
10 3 1 0 3 3 2 76 74 
6 3 4 0 5 2 2 75 74 
8 3 4 0 4 2 2 75 74 
8 2 2 0 1 3 1 76 
1 1 6 0 2 1 1 80 
5 1 1 0 1 3 1 80 
9 4 4 0 4 1 1 80 
4 3 2 0 2 2 1 80 
8 4 2 0 1 3 1 80 
3 1 2 0 4 1 1 80 
0 0 0 0 0 0 1 303 
0 0 0 0 0 0 6 82 86 87 90 94 102 
10 0 1 1 1 1 3 89 85 83 
1 0 2 2 2 2 4 104 97 91 84 
8 0 2 2 2 2 8 121 114 111 106 103 98 95 88 
5 0 4 2 2 1 9 121 111 108 106 105 98 96 95 93 
6 0 2 1 1 2 3 108 103 89 
1 0 2 2 2 2 6 114 111 107 106 99 92 
6 0 2 2 1 2 6 119 108 107 105 99 92 
9 0 2 1 3 3 5 110 105 104 97 95 
4 0 2 3 3 3 5 114 111 103 97 96 
2 0 3 3 3 3 5 119 114 113 107 96 
6 0 2 3 2 4 2 113 96 
4 0 3 3 5 2 2 119 97 
8 0 3 5 2 3 2 106 100 
6 0 1 2 3 2 3 120 119 101 
6 0 3 4 1 1 2 120 100 
6 0 7 1 5 3 2 113 100 
7 0 3 6 1 4 2 119 100 
6 0 2 1 3 1 2 120 101 
1 0 1 2 4 3 1 101 
10 0 7 2 5 1 3 116 112 109 
4 0 2 2 2 3 2 114 107 
7 0 1 1 2 1 4 118 116 115 112 
3 0 2 3 1 2 2 115 106 
5 0 4 1 2 2 3 120 117 116 
6 0 3 3 3 5 2 118 113 
1 0 2 3 4 1 1 110 
3 0 1 1 3 1 1 110 
7 0 3 5 2 6 2 118 115 
4 0 1 2 1 2 2 120 116 
7 0 1 5 2 5 2 119 115 
2 0 3 4 2 4 1 117 
3 0 2 4 3 1 1 117 
9 0 2 2 1 3 1 115 
4 0 5 2 2 4 1 122 
9 0 1 3 2 2 1 122 
3 0 2 2 3 2 1 122 
5 0 5 2 2 2 1 122 
4 0 3 3 4 5 1 122 
9 0 2 1 5 1 1 122 
8 0 1 3 3 3 1 122 
0 0 0 0 0 0 1 303 
0 0 0 0 0 0 3 124 126 129 
6 0 1 0 0 0 5 133 132 128 127 125 
6 0 2 0 0 0 2 131 130 
7 0 2 0 0 0 1 127 
5 0 2 0 0 0 1 130 
4 0 1 0 0 0 1 130 
8 0 4 0 0 0 1 130 
3 0 3 0 0 0 1 134 
2 0 2 0 0 0 1 134 
5 0 5 0 0 0 1 134 
3 0 3 0 0 0 1 134 
0 0 0 0 0 0 3 135 147 179 
0 0 0 0 0 0 6 136 137 138 139 141 145 
8 0 0 0 1 0 3 144 143 142 
8 0 0 0 3 0 3 144 143 142 
6 0 0 0 4 0 2 143 140 
10 0 0 0 1 0 1 140 
4 0 0 0 2 0 1 142 
9 0 0 0 2 0 1 142 
3 0 0 0 4 0 1 146 
3 0 0 0 2 0 1 146 
3 0 0 0 3 0 1 146 
7 0 0 0 3 0 1 146 
0 0 0 0 0 0 3 211 233 245 
0 0 0 0 0 0 7 148 149 150 153 156 176 177 
3 1 0 1 0 1 4 171 157 152 151 
6 3 0 2 0 1 6 172 171 170 169 168 154 
7 3 0 1 0 1 4 175 174 172 154 
1 2 0 2 0 1 3 169 163 154 
1 3 0 1 0 3 3 166 158 155 
3 3 0 3 0 4 5 173 172 168 159 157 
8 3 0 2 0 1 2 166 155 
4 1 0 3 0 3 3 167 162 159 
4 1 0 2 0 1 2 171 158 
3 4 0 1 0 2 3 169 166 161 
9 3 0 3 0 1 2 170 162 
9 3 0 2 0 2 1 160 
5 2 0 3 0 3 1 161 
7 1 0 6 0 1 1 164 
7 2 0 2 0 5 1 165 
6 3 0 1 0 4 1 168 
9 1 0 4 0 2 1 178 
4 2 0 4 0 5 1 178 
7 2 0 2 0 3 1 178 
9 3 0 2 0 3 1 178 
2 3 0 1 0 4 1 178 
3 4 0 5 0 2 1 178 
3 3 0 2 0 5 1 178 
6 5 0 2 0 1 1 178 
8 1 0 3 0 3 1 178 
2 3 0 3 0 2 1 178 
7 3 0 2 0 2 1 178 
3 3 0 2 0 1 1 178 
2 1 0 5 0 4 1 178 
7 3 0 3 0 4 1 178 
0 0 0 0 0 0 1 303 
0 0 0 0 0 0 7 180 181 182 184 189 208 209 
3 0 1 1 1 0 4 204 187 185 183 
5 0 5 3 3 0 6 205 204 203 202 201 186 
4 0 4 3 2 0 4 206 205 192 186 
10 0 1 2 3 0 3 202 196 186 
8 0 3 4 2 0 5 207 205 198 196 187 
10 0 5 1 2 0 3 199 190 188 
8 0 1 1 4 0 2 199 188 
1 0 1 3 3 0 4 202 201 199 191 
1 0 3 3 2 0 3 200 195 191 
6 0 2 3 3 0 3 204 197 190 
8 0 3 3 3 0 2 203 195 
10 0 5 2 3 0 1 193 
1 0 2 3 2 0 1 193 
8 0 3 2 3 0 1 194 
8 0 4 2 2 0 1 197 
1 0 1 1 2 0 1 198 
9 0 2 2 3 0 1 201 
8 0 2 2 4 0 1 210 
10 0 3 1 4 0 1 210 
3 0 1 2 2 0 1 210 
7 0 1 2 1 0 1 210 
3 0 4 3 2 0 1 210 
7 0 1 1 2 0 1 210 
5 0 3 5 3 0 1 210 
6 0 2 1 4 0 1 210 
6 0 3 4 4 0 1 210 
6 0 4 2 1 0 1 210 
10 0 1 5 2 0 1 210 
3 0 1 6 2 0 1 210 
7 0 3 2 1 0 1 210 
0 0 0 0 0 0 1 303 
0 0 0 0 0 0 4 212 213 214 215 
5 0 0 1 1 0 5 222 220 219 218 217 
2 0 0 5 3 0 4 222 220 218 216 
7 0 0 2 1 0 4 222 218 217 216 
7 0 0 3 2 0 3 219 217 216 
8 0 0 1 1 0 4 225 224 223 221 
10 0 0 4 2 0 4 225 224 223 221 
4 0 0 1 4 0 3 225 224 221 
6 0 0 3 2 0 3 225 224 221 
7 0 0 1 2 0 2 224 221 
3 0 0 4 3 0 5 231 230 228 227 226 
9 0 0 2 2 0 5 231 230 228 227 226 
2 0 0 2 3 0 4 230 228 227 226 
2 0 0 3 5 0 3 231 230 227 
10 0 0 1 2 0 3 231 230 226 
6 0 0 3 3 0 1 229 
9 0 0 4 5 0 1 229 
2 0 0 3 2 0 1 229 
9 0 0 3 1 0 1 232 
10 0 0 2 1 0 1 232 
5 0 0 2 5 0 1 232 
0 0 0 0 0 0 1 303 
0 0 0 0 0 0 7 234 235 237 240 241 242 243 
10 1 0 0 0 0 2 239 236 
8 3 0 0 0 0 1 236 
10 2 0 0 0 0 1 238 
9 2 0 0 0 0 1 238 
1 1 0 0 0 0 1 244 
4 3 0 0 0 0 1 244 
5 2 0 0 0 0 1 244 
6 4 0 0 0 0 1 244 
10 4 0 0 0 0 1 244 
1 3 0 0 0 0 1 244 
0 0 0 0 0 0 3 267 279 291 
0 0 0 0 0 0 8 246 247 249 250 251 252 258 265 
9 0 1 0 1 0 4 264 262 253 248 
1 0 3 0 2 0 6 263 262 261 260 257 253 
2 0 1 0 2 0 3 261 260 254 
7 0 3 0 2 0 3 262 261 255 
7 0 3 0 2 0 3 261 260 256 
10 0 2 0 4 0 2 263 255 
9 0 4 0 1 0 1 253 
1 0 1 0 2 0 1 255 
9 0 2 0 1 0 1 255 
10 0 2 0 2 0 1 259 
3 0 2 0 3 0 1 259 
1 0 2 0 2 0 1 259 
9 0 1 0 3 0 1 260 
6 0 6 0 3 0 1 266 
7 0 3 0 2 0 1 266 
9 0 4 0 3 0 1 266 
5 0 4 0 3 0 1 266 
6 0 2 0 4 0 1 266 
1 0 2 0 3 0 1 266 
1 0 2 0 5 0 1 266 
0 0 0 0 0 0 1 303 
0 0 0 0 0 0 5 268 269 271 272 273 
5 0 0 1 0 0 2 275 270 
10 0 0 5 0 0 2 275 270 
1 0 0 3 0 0 3 277 276 274 
2 0 0 2 0 0 2 275 274 
1 0 0 2 0 0 1 275 
5 0 0 3 0 0 1 274 
10 0 0 2 0 0 1 278 
7 0 0 4 0 0 1 278 
6 0 0 2 0 0 1 278 
2 0 0 1 0 0 1 278 
0 0 0 0 0 0 1 303 
0 0 0 0 0 0 3 280 281 282 
6 0 0 0 0 1 5 287 286 285 284 283 
4 0 0 0 0 2 5 287 286 285 284 283 
8 0 0 0 0 2 4 287 285 284 283 
5 0 0 0 0 2 2 289 288 
5 0 0 0 0 3 2 289 288 
9 0 0 0 0 1 2 289 288 
8 0 0 0 0 4 2 289 288 
10 0 0 0 0 3 1 288 
2 0 0 0 0 3 1 290 
6 0 0 0 0 4 1 290 
0 0 0 0 0 0 1 303 
0 0 0 0 0 0 5 292 293 295 300 301 
9 1 0 0 0 0 3 299 297 294 
2 3 0 0 0 0 2 297 296 
2 1 0 0 0 0 1 296 
3 3 0 0 0 0 1 298 
3 4 0 0 0 0 1 302 
1 3 0 0 0 0 1 302 
3 3 0 0 0 0 1 302 
2 2 0 0 0 0 1 302 
2 2 0 0 0 0 1 302 
4 3 0 0 0 0 1 302 
0 0 0 0 0 0 1 303 
0 0 0 0 0 0 0 
